
Gurobi 6.0.5 (linux64) logging started Fri Oct 20 12:47:13 2017


Gurobi 6.0.5 (linux64) logging started Fri Oct 20 12:47:28 2017


Gurobi 6.0.5 (linux64) logging started Fri Oct 20 12:47:43 2017


Gurobi 6.0.5 (linux64) logging started Fri Oct 20 12:48:02 2017


Gurobi 6.0.5 (linux64) logging started Fri Oct 20 12:48:39 2017


Gurobi 6.0.5 (linux64) logging started Fri Oct 20 12:49:36 2017


Gurobi 6.0.5 (linux64) logging started Fri Oct 20 12:50:31 2017


Gurobi 6.0.5 (linux64) logging started Fri Oct 20 12:51:35 2017


Gurobi 6.0.5 (linux64) logging started Fri Oct 20 12:52:55 2017

